
Gurobi 11.0.3 (linux64) logging started Thu Nov 21 19:39:06 2024

Set parameter LogFile to value "/home/yihong/Coding/OR_SUC/SUC_results_bigM100000_thread4/case24_ieee_rts_theta0.1_epsilon0.025_gurobi_seed70000_num_gen100_N_WDR100_load_scaling_factor1_proposed_T12quadra_cost.txt"
Set parameter TimeLimit to value 3600
Gurobi Optimizer version 11.0.3 build v11.0.3rc0 (linux64 - "Ubuntu 20.04.6 LTS")

CPU model: AMD EPYC 7532 32-Core Processor, instruction set [SSE2|AVX|AVX2]
Thread count: 64 physical cores, 128 logical processors, using up to 4 threads

Optimize a model with 25722 rows, 14981 columns and 353498 nonzeros
Model fingerprint: 0x13dcbcf0
Model has 1200 quadratic constraints
Variable types: 13781 continuous, 1200 integer (1200 binary)
Coefficient statistics:
  Matrix range     [3e-04, 2e+03]
  QMatrix range    [2e-03, 8e-03]
  QLMatrix range   [5e-01, 6e+01]
  Objective range  [1e+00, 1e+00]
  Bounds range     [1e+00, 1e+00]
  RHS range        [1e+00, 9e+03]
Presolve removed 20955 rows and 6604 columns
Presolve time: 0.11s
Presolved: 4767 rows, 8377 columns, 30941 nonzeros
Presolved model has 1200 quadratic constraint(s)
Variable types: 7177 continuous, 1200 integer (1200 binary)

Root relaxation: objective 1.861074e+04, 3832 iterations, 0.06 seconds (0.09 work units)

    Nodes    |    Current Node    |     Objective Bounds      |     Work
 Expl Unexpl |  Obj  Depth IntInf | Incumbent    BestBd   Gap | It/Node Time

     0     0 18610.7404    0   12          - 18610.7404      -     -    0s
     0     0 168460.709    0  449          - 168460.709      -     -    0s
     0     0 168464.964    0  449          - 168464.964      -     -    0s
     0     0 318477.567    0  330          - 318477.567      -     -    0s
     0     0 318492.146    0  209          - 318492.146      -     -    0s
     0     0 318618.502    0  116          - 318618.502      -     -    0s
     0     0 318620.791    0  116          - 318620.791      -     -    0s
     0     0 318620.791    0  117          - 318620.791      -     -    0s
     0     0 318624.099    0  117          - 318624.099      -     -    0s
     0     2 318624.115    0  117          - 318624.115      -     -    0s
H  189   343                    318669.37697 318639.969  0.01%  11.4    1s
*  189   343              79    318669.37697 318639.969  0.01%  11.4    1s

Cutting planes:
  Gomory: 23
  Implied bound: 200
  MIR: 70
  Flow cover: 286

Explored 358 nodes (14037 simplex iterations) in 1.78 seconds (2.29 work units)
Thread count was 4 (of 128 available processors)

Solution count 2: 318669 318669 

Optimal solution found (tolerance 1.00e-03)
Warning: max constraint violation (2.4693e-07) exceeds tolerance
Best objective 3.186693769665e+05, best bound 3.186399690686e+05, gap 0.0092%
